0,157006,304552,57346,94158,84707,176422,224430,157006,0,296909,121565,240839,160421,243490,322747,304552,296909,0,275981,390464,366190,217206,289608,57346,121565,275981,0,148601,105906,164013,243270,94158,240839,390464,148601,0,86421,262450,301762,84707,160421,366190,105906,86421,0,238100,309124,176422,243490,217206,164013,262450,238100,0,96489,224430,322747,289608,243270,301762,309124,96489,0